c This is QMaxSAT 2017 based on 14.07
c This is Glucose 3.0
c This is MiniSat 2.2.0
c WARNING: for repeatability, setting FPU to use double precision
c card = mrwto, comp = 0, pmodel = 0, narr = 4, mct = 29, verb = 0
cr firstCPXsol 0 0 0
c top = 167313
c |  Number of variables:    24532                                            |
c |  Number of clauses:      7834632                                          |
c |  Weight of hard clauses: 167313                                           |
c |  Number of soft clauses: 3248                                             |
c |  Number of unit soft clauses: 3248                                        |
c |  Maximum Cardinality (by unit): 669248       (669248      )               |
c last restart ## conflicts  :  0 900 
o 1614 | cpuTime 0.68637 s
c Sum of weights = 167312
c A number of soft clauses remained = 812
c MRWTO encoding for Pseudo-Boolean Constraints
c sizeMax=1614
c No.0 Divisor=12	generated by pow1
c No.1 Divisor=12	generated by pow1
c No.2 Divisor=12	generated by pow1
c p0= 12	p1= 12	p2= 12	
c number of digits = 4
c linkingVar[0].size = 12, linkingVar[1].size = 12, linkingVar[2].size = 12, linkingVar[3].size = 1, 
c Pseudo-Boolean Constraints: 19135 variables and 188610 clauses
c Sum of weights = 167312
c A number of soft clauses remained = 812
c MRWTO encoding for Pseudo-Boolean Constraints
c sizeMax=1614
c No.0 Divisor=12	generated by pow1
c No.1 Divisor=12	generated by pow1
c No.2 Divisor=12	generated by pow1
c p0= 12	p1= 12	p2= 12	
c number of digits = 4
c linkingVar[0].size = 12, linkingVar[1].size = 12, linkingVar[2].size = 12, linkingVar[3].size = 1, 
c Pseudo-Boolean Constraints: 19135 variables and 188610 clauses
c Sum of weights = 167312
c A number of soft clauses remained = 812
c MRWTO encoding for Pseudo-Boolean Constraints
c sizeMax=1614
c No.0 Divisor=12	generated by pow1
c No.1 Divisor=12	generated by pow1
c No.2 Divisor=12	generated by pow1
c p0= 12	p1= 12	p2= 12	
c number of digits = 4
c linkingVar[0].size = 12, linkingVar[1].size = 12, linkingVar[2].size = 12, linkingVar[3].size = 1, 
c Pseudo-Boolean Constraints: 19135 variables and 188610 clauses
c Sum of weights = 167312
c A number of soft clauses remained = 812
c MRWTO encoding for Pseudo-Boolean Constraints
c sizeMax=1614
c No.0 Divisor=12	generated by pow1
c No.1 Divisor=12	generated by pow1
c No.2 Divisor=12	generated by pow1
c p0= 12	p1= 12	p2= 12	
c number of digits = 4
c linkingVar[0].size = 12, linkingVar[1].size = 12, linkingVar[2].size = 12, linkingVar[3].size = 1, 
c Pseudo-Boolean Constraints: 19135 variables and 188610 clauses
c last restart ## conflicts  :  103 4138 
o 1432 | cpuTime 4.90493 s
c last restart ## conflicts  :  435 3167 
o 1354 | cpuTime 11.6089 s
c last restart ## conflicts  :  245 2414 
o 1311 | cpuTime 20.9471 s
c last restart ## conflicts  :  850 2672 
o 1263 | cpuTime 49.1268 s
c last restart ## conflicts  :  461 2950 
o 1249 | cpuTime 89.9583 s
c last restart ## conflicts  :  114 1917 
o 1246 | cpuTime 96.9518 s
c last restart ## conflicts  :  899 2292 
o 1196 | cpuTime 138.716 s
c last restart ## conflicts  :  298 2290 
o 1190 | cpuTime 146.725 s
c last restart ## conflicts  :  2097 1817 
o 1187 | cpuTime 209.65 s
c last restart ## conflicts  :  1356 2075 
o 1148 | cpuTime 339.57 s
c last restart ## conflicts  :  8 3207 
o 1117 | cpuTime 522.93 s
c last restart ## conflicts  :  860 2230 
o 1109 | cpuTime 662.045 s
c last restart ## conflicts  :  857 1872 
o 1102 | cpuTime 703.234 s
c last restart ## conflicts  :  69 4225 
o 1089 | cpuTime 1375.54 s
c last restart ## conflicts  :  482 2329 
o 1082 | cpuTime 1395.74 s
c last restart ## conflicts  :  284 2029 
o 1070 | cpuTime 2068.95 s
c last restart ## conflicts  :  130 2309 
o 1041 | cpuTime 2896.63 s
s UNKNOWN
c Search is stopped by a limit (maybe time-limit)
cr positiVarArr: [ | 24@1(1->24) | 49@1(2->20) | 157@1(6->12) | 209@1(8->6) | 258@1(9->26) | 282@1(10->21) | 328@1(12->9) | 561@1(20->10) | 581@1(21->1) | 665@1(23->27) | 690@1(24->23) | 754@1(26->29) | 762@1(27->8) | 814@1(29->2) | 859@2(1->18) | 1043@2(7->28) | 1156@2(11->25) | 1345@2(18->11) | 1544@2(25->7) | 1625@2(28->1) | 1685@3(1->3) | 1744@3(3->4) | 1784@3(4->15) | 2031@3(13->1) | 2107@3(15->19) | 2130@3(16->13) | 2220@3(19->16) | 2528@4(1->5) | 2653@4(5->14) | 2917@4(14->17) | 3009@4(17->22) | 3133@4(22->1) | ]
cr the 1-th chain: [ 1->24->23->27->8->6->12->9->26->29->2->20->10->21->1 ] (#non-depot=13) {#cumul.=14}
cr the 2-th chain: [ 1->18->11->25->7->28->1 ] (#non-depot=5) {#cumul.=19}
cr the 3-th chain: [ 1->3->4->15->19->16->13->1 ] (#non-depot=6) {#cumul.=25}
cr the 4-th chain: [ 1->5->14->17->22->1 ] (#non-depot=4) {#cumul.=29}
c Latest Answer = 0 by 18 loops
c restarts              : 33900
c conflicts             : 11532162       (3215 /sec)
c decisions             : 69208340       (0.00 % random) (19292 /sec)
c propagations          : 24230313772    (6754236 /sec)
c conflict literals     : 4407471628     (41.33 % deleted)
c Memory used           : 1564.00 MB
c CPU time              : 3587.42 s
